sifdecoder -A pc64.lnx.gfo -st   HIMMELBJ

 Problem name: HIMMELBJ

 Double precision version will be formed

 The objective function uses 1 nonlinear group
 
 There are 14 linear equality constraints
 
 There are 43 variables bounded only from below 
 There are 2 fixed variables
 
 
 File successfully decoded
 CUTEST: tools (double precision version) compiled successfully
 CUTEst: ipopt (double precision version) compiled successfully

******************************************************************************
This program contains Ipopt, a library for large-scale nonlinear optimization.
 Ipopt is released as open source code under the Eclipse Public License (EPL).
         For more information visit http://projects.coin-or.org/Ipopt
******************************************************************************

This is Ipopt version trunk, running with linear solver ma57.

Number of nonzeros in equality constraint Jacobian...:       85
Number of nonzeros in inequality constraint Jacobian.:        0
Number of nonzeros in Lagrangian Hessian.............:      259

Reallocating memory for MA57: lfact (1776)
Total number of variables............................:       43
                     variables with only lower bounds:       43
                variables with lower and upper bounds:        0
                     variables with only upper bounds:        0
Total number of equality constraints.................:       14
Total number of inequality constraints...............:        0
        inequality constraints with only lower bounds:        0
   inequality constraints with lower and upper bounds:        0
        inequality constraints with only upper bounds:        0

iter    objective    inf_pr   inf_du lg(mu)  ||d||  lg(rg) alpha_du alpha_pr  ls
   0 -3.0416499e+01 4.67e+01 1.52e+01  -1.0 0.00e+00    -  0.00e+00 0.00e+00   0
   1 -5.8577823e+01 4.58e+01 1.48e+01  -1.0 7.30e+00    -  1.36e-02 1.83e-02f  1
   2 -2.0481231e+02 4.20e+01 1.35e+01  -1.0 1.88e+01    -  1.42e-02 8.39e-02f  1
   3 -3.7973295e+02 3.79e+01 1.13e+01  -1.0 3.18e+01    -  9.74e-02 9.77e-02f  1
   4 -6.4124835e+02 3.14e+01 9.56e+00  -1.0 1.91e+01    -  1.51e-01 1.70e-01f  1
   5 -7.7242284e+02 2.84e+01 9.51e+00  -1.0 4.68e+01    -  2.57e-01 9.53e-02f  1
   6 -1.1038888e+03 2.03e+01 2.27e+01  -1.0 2.29e+01    -  1.00e+00 2.88e-01f  1
   7 -1.5653309e+03 8.66e+00 6.20e+00  -1.0 1.60e+01    -  8.56e-01 5.73e-01f  1
   8 -1.7834299e+03 3.16e+00 1.89e+01  -1.0 8.29e+00    -  8.82e-01 6.35e-01f  1
   9 -1.8500989e+03 1.48e+00 2.78e+01  -1.0 3.95e+00    -  1.00e+00 5.31e-01f  1
iter    objective    inf_pr   inf_du lg(mu)  ||d||  lg(rg) alpha_du alpha_pr  ls
  10 -1.8729619e+03 9.06e-01 1.01e+02  -1.0 2.22e+00    -  1.00e+00 3.89e-01f  1
  11 -1.8990258e+03 2.50e-01 8.28e+01  -1.0 1.48e+00    -  1.00e+00 7.24e-01f  1
  12 -1.9055050e+03 8.71e-02 1.49e+02  -1.0 4.50e-01    -  1.00e+00 6.51e-01f  1
  13 -1.9073489e+03 4.08e-02 5.99e+02  -1.0 1.59e-01    -  1.00e+00 5.31e-01f  1
  14 -1.9083789e+03 1.50e-02 1.01e+03  -1.0 7.15e-02    -  1.00e+00 6.34e-01f  1
  15 -1.9087095e+03 6.66e-03 3.15e+03  -1.0 2.74e-02    -  1.00e+00 5.55e-01h  1
  16 -1.9088717e+03 2.58e-03 6.37e+03  -1.0 1.16e-02    -  1.00e+00 6.12e-01h  1
  17 -1.9089008e+03 1.86e-03 2.92e+04  -1.0 4.73e-03    -  1.00e+00 2.82e-01f  2
  18 -1.9089591e+03 3.90e-04 1.61e+04  -1.0 3.33e-03    -  1.00e+00 7.90e-01h  1
Warning: Cutting back alpha due to evaluation error
  19 -1.9089630e+03 2.91e-04 1.79e+05  -1.0 6.73e-04    -  1.00e+00 2.52e-01f  2
Warning: Cutting back alpha due to evaluation error
iter    objective    inf_pr   inf_du lg(mu)  ||d||  lg(rg) alpha_du alpha_pr  ls
  20 -1.9089680e+03 1.67e-04 2.71e+05  -1.0 5.16e-04    -  1.00e+00 4.28e-01h  2
Warning: Cutting back alpha due to evaluation error
  21 -1.9089712e+03 8.68e-05 4.01e+05  -1.0 2.96e-04    -  1.00e+00 4.80e-01h  2
Warning: Cutting back alpha due to evaluation error
  22 -1.9089729e+03 4.34e-05 6.56e+05  -1.0 1.54e-04    -  1.00e+00 5.00e-01h  2
Warning: Cutting back alpha due to evaluation error
  23 -1.9089738e+03 2.17e-05 1.15e+06  -1.0 7.72e-05    -  1.00e+00 5.00e-01h  2
Warning: Cutting back alpha due to evaluation error
  24 -1.9089742e+03 1.08e-05 1.93e+06  -1.0 3.86e-05    -  1.00e+00 5.00e-01h  2
Warning: Cutting back alpha due to evaluation error
  25 -1.9089744e+03 5.42e-06 2.86e+06  -1.0 1.93e-05    -  1.00e+00 5.00e-01h  2
Warning: Cutting back alpha due to evaluation error
Warning: Cutting back alpha due to evaluation error
Warning: Cutting back alpha due to evaluation error
  26 -1.9089744e+03 4.75e-06 6.06e+06  -1.0 9.66e-06    -  1.00e+00 1.25e-01h  4
Warning: Cutting back alpha due to evaluation error
Warning: Cutting back alpha due to evaluation error
Warning: Cutting back alpha due to evaluation error
Warning: Cutting back alpha due to evaluation error
  27 -1.9089744e+03 4.45e-06 7.88e+06  -1.0 8.45e-06    -  1.00e+00 6.25e-02h  5
Warning: Cutting back alpha due to evaluation error
Warning: Cutting back alpha due to evaluation error
Warning: Cutting back alpha due to evaluation error
Warning: Cutting back alpha due to evaluation error
Warning: Cutting back alpha due to evaluation error
  28 -1.9089744e+03 4.31e-06 8.82e+06  -1.0 7.92e-06    -  1.00e+00 3.12e-02h  6
Warning: Cutting back alpha due to evaluation error
Warning: Cutting back alpha due to evaluation error
Warning: Cutting back alpha due to evaluation error
Warning: Cutting back alpha due to evaluation error
Warning: Cutting back alpha due to evaluation error
Warning: Cutting back alpha due to evaluation error
  29 -1.9089745e+03 4.24e-06 9.28e+06  -1.0 7.67e-06    -  1.00e+00 1.56e-02h  6
Warning: Cutting back alpha due to evaluation error
Warning: Cutting back alpha due to evaluation error
Warning: Cutting back alpha due to evaluation error
Warning: Cutting back alpha due to evaluation error
Warning: Cutting back alpha due to evaluation error
Warning: Cutting back alpha due to evaluation error
Warning: Cutting back alpha due to evaluation error
iter    objective    inf_pr   inf_du lg(mu)  ||d||  lg(rg) alpha_du alpha_pr  ls
  30 -1.9089745e+03 4.21e-06 9.49e+06  -1.0 7.55e-06    -  1.00e+00 7.81e-03h  8
Warning: Cutting back alpha due to evaluation error
Warning: Cutting back alpha due to evaluation error
Warning: Cutting back alpha due to evaluation error
Warning: Cutting back alpha due to evaluation error
Warning: Cutting back alpha due to evaluation error
Warning: Cutting back alpha due to evaluation error
Warning: Cutting back alpha due to evaluation error
Warning: Cutting back alpha due to evaluation error
  31 -1.9089745e+03 4.19e-06 9.59e+06  -1.0 7.49e-06    -  1.00e+00 3.91e-03h  9
Warning: Cutting back alpha due to evaluation error
Warning: Cutting back alpha due to evaluation error
Warning: Cutting back alpha due to evaluation error
Warning: Cutting back alpha due to evaluation error
Warning: Cutting back alpha due to evaluation error
Warning: Cutting back alpha due to evaluation error
Warning: Cutting back alpha due to evaluation error
Warning: Cutting back alpha due to evaluation error
Warning: Cutting back alpha due to evaluation error
Warning: Cutting back alpha due to evaluation error
Warning: Cutting back alpha due to evaluation error
  32 -1.9089745e+03 4.19e-06 9.66e+06  -1.0 7.46e-06    -  1.00e+00 4.88e-04h 12
Warning: Cutting back alpha due to evaluation error
Warning: Cutting back alpha due to evaluation error
Warning: Cutting back alpha due to evaluation error
Warning: Cutting back alpha due to evaluation error
Warning: Cutting back alpha due to evaluation error
Warning: Cutting back alpha due to evaluation error
Warning: Cutting back alpha due to evaluation error
Warning: Cutting back alpha due to evaluation error
Warning: Cutting back alpha due to evaluation error
Warning: Cutting back alpha due to evaluation error
Warning: Cutting back alpha due to evaluation error
Warning: Cutting back alpha due to evaluation error
  33 -1.9089745e+03 4.19e-06 9.68e+06  -1.0 7.46e-06    -  1.00e+00 2.44e-04h 13
Warning: Cutting back alpha due to evaluation error
Warning: Cutting back alpha due to evaluation error
Warning: Cutting back alpha due to evaluation error
Warning: Cutting back alpha due to evaluation error
Warning: Cutting back alpha due to evaluation error
Warning: Cutting back alpha due to evaluation error
Warning: Cutting back alpha due to evaluation error
Warning: Cutting back alpha due to evaluation error
Warning: Cutting back alpha due to evaluation error
Warning: Cutting back alpha due to evaluation error
Warning: Cutting back alpha due to evaluation error
Warning: Cutting back alpha due to evaluation error
Warning: Cutting back alpha due to evaluation error
Warning: Cutting back alpha due to evaluation error
Warning: Cutting back alpha due to evaluation error
  34 -1.9089745e+03 4.19e-06 9.69e+06  -1.0 7.46e-06    -  1.00e+00 3.05e-05h 16
Warning: Cutting back alpha due to evaluation error
Warning: Cutting back alpha due to evaluation error
Warning: Cutting back alpha due to evaluation error
Warning: Cutting back alpha due to evaluation error
Warning: Cutting back alpha due to evaluation error
Warning: Cutting back alpha due to evaluation error
Warning: Cutting back alpha due to evaluation error
Warning: Cutting back alpha due to evaluation error
Warning: Cutting back alpha due to evaluation error
Warning: Cutting back alpha due to evaluation error
Warning: Cutting back alpha due to evaluation error
Warning: Cutting back alpha due to evaluation error
Warning: Cutting back alpha due to evaluation error
Warning: Cutting back alpha due to evaluation error
Warning: Cutting back alpha due to evaluation error
Warning: Cutting back alpha due to evaluation error
Warning: Cutting back alpha due to evaluation error
Warning: Cutting back alpha due to evaluation error
Warning: Evaluation error during soft restoration phase step.
Warning: Evaluation error during soft restoration phase step.
Warning: Evaluation error during soft restoration phase step.
  35r-1.9089745e+03 4.19e-06 1.00e+03  -1.0 0.00e+00    -  0.00e+00 4.77e-07R 22
  36r-1.9078834e+03 1.98e-04 6.68e+02  -1.0 3.81e-01    -  4.96e-01 6.61e-01f  1
  37r-1.9070393e+03 2.54e-04 1.25e+03  -1.0 2.76e-01    -  3.97e-01 2.77e-01f  1
  38r-1.9024491e+03 4.24e-04 1.38e+02  -1.0 2.60e-01    -  8.56e-01 9.85e-01f  1
  39r-1.8935873e+03 4.78e-04 3.90e+01  -1.0 5.58e-01    -  3.35e-01 4.14e-01f  1
iter    objective    inf_pr   inf_du lg(mu)  ||d||  lg(rg) alpha_du alpha_pr  ls
  40r-1.8743732e+03 5.72e-04 9.89e+01  -1.0 3.77e-01    -  7.04e-01 1.00e+00f  1
  41r-1.8630077e+03 5.85e-04 1.00e-06  -1.0 2.55e-01    -  1.00e+00 1.00e+00f  1
  42r-1.8759285e+03 2.28e-04 8.25e+01  -2.5 7.41e-01    -  8.59e-01 6.30e-01f  1
  43r-1.8796089e+03 1.67e-05 2.83e-08  -2.5 1.38e-01    -  1.00e+00 1.00e+00f  1
  44r-1.8933909e+03 8.63e-07 2.10e+00  -3.8 3.79e-01    -  7.91e-01 1.00e+00f  1
  45 -1.8934964e+03 8.62e-07 1.71e+05  -1.0 4.07e+00    -  3.07e-01 9.82e-04f  2
  46 -1.9063032e+03 6.61e-07 4.83e+05  -1.0 2.31e+00    -  8.70e-01 2.33e-01f  1
Warning: Cutting back alpha due to evaluation error
  47 -1.9079614e+03 3.30e-07 4.08e+05  -1.0 1.49e-01    -  7.39e-01 5.00e-01f  2
Warning: Cutting back alpha due to evaluation error
  48 -1.9082492e+03 2.48e-07 1.28e+06  -1.0 8.29e-02    -  1.00e+00 2.50e-01f  3
Warning: Cutting back alpha due to evaluation error
  49 -1.9086167e+03 1.24e-07 1.43e+06  -1.0 2.82e-01    -  1.00e+00 5.00e-01h  2
Warning: Cutting back alpha due to evaluation error
iter    objective    inf_pr   inf_du lg(mu)  ||d||  lg(rg) alpha_du alpha_pr  ls
  50 -1.9087974e+03 6.20e-08 2.01e+06  -1.0 1.53e-01    -  1.00e+00 5.00e-01h  2
Warning: Cutting back alpha due to evaluation error
  51 -1.9088868e+03 3.10e-08 2.82e+06  -1.0 8.18e-02    -  1.00e+00 5.00e-01h  2
Warning: Cutting back alpha due to evaluation error
Warning: Cutting back alpha due to evaluation error
Warning: Cutting back alpha due to evaluation error
  52 -1.9088978e+03 2.71e-08 5.93e+06  -1.0 4.31e-02    -  1.00e+00 1.25e-01h  4
Warning: Cutting back alpha due to evaluation error
Warning: Cutting back alpha due to evaluation error
Warning: Cutting back alpha due to evaluation error
  53 -1.9089075e+03 2.37e-08 7.21e+06  -1.0 3.78e-02    -  1.00e+00 1.25e-01h  4
Warning: Cutting back alpha due to evaluation error
Warning: Cutting back alpha due to evaluation error
Warning: Cutting back alpha due to evaluation error
Warning: Cutting back alpha due to evaluation error
Warning: Cutting back alpha due to evaluation error
Warning: Cutting back alpha due to evaluation error
  54 -1.9089086e+03 2.33e-08 8.34e+06  -1.0 3.33e-02    -  1.00e+00 1.56e-02h  7
Warning: Cutting back alpha due to evaluation error
Warning: Cutting back alpha due to evaluation error
Warning: Cutting back alpha due to evaluation error
Warning: Cutting back alpha due to evaluation error
Warning: Cutting back alpha due to evaluation error
Warning: Cutting back alpha due to evaluation error
Warning: Cutting back alpha due to evaluation error
Warning: Cutting back alpha due to evaluation error
Warning: Cutting back alpha due to evaluation error
  55 -1.9089087e+03 2.33e-08 8.94e+06  -1.0 3.28e-02    -  1.00e+00 1.95e-03h 10
Warning: Cutting back alpha due to evaluation error
Warning: Cutting back alpha due to evaluation error
Warning: Cutting back alpha due to evaluation error
Warning: Cutting back alpha due to evaluation error
Warning: Cutting back alpha due to evaluation error
Warning: Cutting back alpha due to evaluation error
Warning: Cutting back alpha due to evaluation error
Warning: Cutting back alpha due to evaluation error
Warning: Cutting back alpha due to evaluation error
Warning: Cutting back alpha due to evaluation error
  56 -1.9089088e+03 2.33e-08 9.22e+06  -1.0 3.28e-02    -  1.00e+00 9.77e-04h 11
Warning: Cutting back alpha due to evaluation error
Warning: Cutting back alpha due to evaluation error
Warning: Cutting back alpha due to evaluation error
Warning: Cutting back alpha due to evaluation error
Warning: Cutting back alpha due to evaluation error
Warning: Cutting back alpha due to evaluation error
Warning: Cutting back alpha due to evaluation error
Warning: Cutting back alpha due to evaluation error
Warning: Cutting back alpha due to evaluation error
Warning: Cutting back alpha due to evaluation error
Warning: Cutting back alpha due to evaluation error
Warning: Cutting back alpha due to evaluation error
  57 -1.9089088e+03 2.33e-08 9.36e+06  -1.0 3.27e-02    -  1.00e+00 2.44e-04h 12
Warning: Cutting back alpha due to evaluation error
Warning: Cutting back alpha due to evaluation error
Warning: Cutting back alpha due to evaluation error
Warning: Cutting back alpha due to evaluation error
Warning: Cutting back alpha due to evaluation error
Warning: Cutting back alpha due to evaluation error
Warning: Cutting back alpha due to evaluation error
Warning: Cutting back alpha due to evaluation error
Warning: Cutting back alpha due to evaluation error
Warning: Cutting back alpha due to evaluation error
Warning: Cutting back alpha due to evaluation error
Warning: Cutting back alpha due to evaluation error
Warning: Cutting back alpha due to evaluation error
Warning: Cutting back alpha due to evaluation error
Warning: Cutting back alpha due to evaluation error
  58 -1.9089088e+03 2.33e-08 9.41e+06  -1.0 3.27e-02    -  1.00e+00 3.05e-05h 16
Warning: Cutting back alpha due to evaluation error
Warning: Cutting back alpha due to evaluation error
Warning: Cutting back alpha due to evaluation error
Warning: Cutting back alpha due to evaluation error
Warning: Cutting back alpha due to evaluation error
Warning: Cutting back alpha due to evaluation error
Warning: Cutting back alpha due to evaluation error
Warning: Cutting back alpha due to evaluation error
Warning: Cutting back alpha due to evaluation error
Warning: Cutting back alpha due to evaluation error
Warning: Cutting back alpha due to evaluation error
Warning: Cutting back alpha due to evaluation error
Warning: Cutting back alpha due to evaluation error
Warning: Cutting back alpha due to evaluation error
Warning: Cutting back alpha due to evaluation error
Warning: Cutting back alpha due to evaluation error
Warning: Cutting back alpha due to evaluation error
Warning: Cutting back alpha due to evaluation error
Warning: Evaluation error during soft restoration phase step.
Warning: Evaluation error during soft restoration phase step.
Warning: Evaluation error during soft restoration phase step.
  59r-1.9089088e+03 2.33e-08 1.00e+03  -1.0 0.00e+00    -  0.00e+00 4.77e-07R 22
iter    objective    inf_pr   inf_du lg(mu)  ||d||  lg(rg) alpha_du alpha_pr  ls
  60r-1.9078122e+03 1.98e-04 6.68e+02  -1.0 3.81e-01    -  4.96e-01 6.61e-01f  1
  61r-1.9069710e+03 2.54e-04 1.25e+03  -1.0 2.76e-01    -  3.97e-01 2.77e-01f  1
  62r-1.9023734e+03 4.25e-04 1.33e+02  -1.0 2.60e-01    -  8.58e-01 9.92e-01f  1
  63r-1.8931475e+03 4.81e-04 3.46e+01  -1.0 5.61e-01    -  3.37e-01 4.29e-01f  1
  64r-1.8739694e+03 5.72e-04 9.45e+01  -1.0 3.68e-01    -  7.16e-01 1.00e+00f  1
  65r-1.8628443e+03 5.85e-04 1.00e-06  -1.0 2.50e-01    -  1.00e+00 1.00e+00f  1
  66r-1.8758115e+03 2.28e-04 8.26e+01  -2.5 7.44e-01    -  8.60e-01 6.30e-01f  1
  67r-1.8795158e+03 1.67e-05 2.83e-08  -2.5 1.39e-01    -  1.00e+00 1.00e+00f  1
  68r-1.8933310e+03 8.63e-07 2.10e+00  -3.8 3.80e-01    -  7.91e-01 1.00e+00f  1
  69r-1.8949747e+03 8.61e-07 1.50e-09  -3.8 3.24e-02    -  1.00e+00 1.00e+00f  1
Warning: Cutting back alpha due to evaluation error
iter    objective    inf_pr   inf_du lg(mu)  ||d||  lg(rg) alpha_du alpha_pr  ls
  70r-1.8983978e+03 4.30e-07 5.88e-01  -5.7 1.58e-01    -  6.51e-01 4.94e-01f  2
Warning: Cutting back alpha due to evaluation error
  71r-1.8990153e+03 2.14e-07 4.13e+00  -5.7 3.80e-02    -  1.00e+00 4.89e-01f  2
Warning: Cutting back alpha due to evaluation error
  72r-1.9014029e+03 1.06e-07 9.98e+00  -5.7 1.06e-01    -  1.00e+00 4.80e-01f  2
Warning: Cutting back alpha due to evaluation error
  73r-1.9032810e+03 5.19e-08 2.15e+01  -5.7 8.69e-02    -  1.00e+00 4.64e-01f  2
Warning: Cutting back alpha due to evaluation error
  74r-1.9044352e+03 2.50e-08 4.48e+01  -5.7 5.52e-02    -  1.00e+00 4.43e-01f  2
Warning: Cutting back alpha due to evaluation error
Warning: Cutting back alpha due to evaluation error
Warning: Cutting back alpha due to evaluation error
Warning: Cutting back alpha due to evaluation error
  75r-1.9045209e+03 2.33e-08 1.43e+02  -5.7 3.40e-02    -  1.00e+00 5.38e-02f  5
Warning: Cutting back alpha due to evaluation error
Warning: Cutting back alpha due to evaluation error
Warning: Cutting back alpha due to evaluation error
Warning: Cutting back alpha due to evaluation error
Warning: Cutting back alpha due to evaluation error
Warning: Cutting back alpha due to evaluation error
Warning: Cutting back alpha due to evaluation error
  76r-1.9045320e+03 2.31e-08 2.39e+02  -5.7 3.27e-02    -  1.00e+00 7.23e-03f  8
Warning: Cutting back alpha due to evaluation error
Warning: Cutting back alpha due to evaluation error
Warning: Cutting back alpha due to evaluation error
Warning: Cutting back alpha due to evaluation error
Warning: Cutting back alpha due to evaluation error
Warning: Cutting back alpha due to evaluation error
Warning: Cutting back alpha due to evaluation error
Warning: Cutting back alpha due to evaluation error
Warning: Cutting back alpha due to evaluation error
Warning: Cutting back alpha due to evaluation error
Warning: Cutting back alpha due to evaluation error
  77r-1.9045327e+03 2.31e-08 3.12e+02  -5.7 3.26e-02    -  1.00e+00 4.83e-04f 12
Warning: Cutting back alpha due to evaluation error
Warning: Cutting back alpha due to evaluation error
Warning: Cutting back alpha due to evaluation error
Warning: Cutting back alpha due to evaluation error
Warning: Cutting back alpha due to evaluation error
Warning: Cutting back alpha due to evaluation error
Warning: Cutting back alpha due to evaluation error
Warning: Cutting back alpha due to evaluation error
Warning: Cutting back alpha due to evaluation error
Warning: Cutting back alpha due to evaluation error
Warning: Cutting back alpha due to evaluation error
Warning: Cutting back alpha due to evaluation error
Warning: Cutting back alpha due to evaluation error
  78r-1.9045329e+03 2.31e-08 3.60e+02  -5.7 3.26e-02    -  1.00e+00 1.22e-04f 14
Warning: Cutting back alpha due to evaluation error
Warning: Cutting back alpha due to evaluation error
Warning: Cutting back alpha due to evaluation error
Warning: Cutting back alpha due to evaluation error
Warning: Cutting back alpha due to evaluation error
Warning: Cutting back alpha due to evaluation error
Warning: Cutting back alpha due to evaluation error
Warning: Cutting back alpha due to evaluation error
Warning: Cutting back alpha due to evaluation error
Warning: Cutting back alpha due to evaluation error
Warning: Cutting back alpha due to evaluation error
Warning: Cutting back alpha due to evaluation error
Warning: Cutting back alpha due to evaluation error
Warning: Cutting back alpha due to evaluation error
Warning: Cutting back alpha due to evaluation error
Warning: Cutting back alpha due to evaluation error
Warning: Cutting back alpha due to evaluation error
Warning: Cutting back alpha due to evaluation error
Warning: Cutting back alpha due to evaluation error
Warning: Cutting back alpha due to evaluation error
Warning: Cutting back alpha due to evaluation error
Warning: Cutting back alpha due to evaluation error
  79r-1.9045329e+03 2.31e-08 3.90e+02  -5.7 3.26e-02    -  1.00e+00 2.38e-07f 23
Warning: Cutting back alpha due to evaluation error
Warning: Cutting back alpha due to evaluation error
Warning: Cutting back alpha due to evaluation error
Warning: Cutting back alpha due to evaluation error
Warning: Cutting back alpha due to evaluation error
Warning: Cutting back alpha due to evaluation error
Warning: Cutting back alpha due to evaluation error
Warning: Cutting back alpha due to evaluation error
Warning: Cutting back alpha due to evaluation error
Warning: Cutting back alpha due to evaluation error
Warning: Cutting back alpha due to evaluation error
Warning: Cutting back alpha due to evaluation error
Warning: Cutting back alpha due to evaluation error
Warning: Cutting back alpha due to evaluation error
Warning: Cutting back alpha due to evaluation error
Warning: Cutting back alpha due to evaluation error
Warning: Cutting back alpha due to evaluation error
Warning: Cutting back alpha due to evaluation error
Warning: Cutting back alpha due to evaluation error
Warning: Cutting back alpha due to evaluation error
Warning: Cutting back alpha due to evaluation error
Warning: Cutting back alpha due to evaluation error
Warning: Cutting back alpha due to evaluation error
Warning: Cutting back alpha due to evaluation error
iter    objective    inf_pr   inf_du lg(mu)  ||d||  lg(rg) alpha_du alpha_pr  ls
  80r-1.9045329e+03 2.31e-08 4.07e+02  -5.7 3.26e-02    -  1.00e+00 5.96e-08h 24
Warning: Cutting back alpha due to evaluation error
Warning: Cutting back alpha due to evaluation error
Warning: Cutting back alpha due to evaluation error
Warning: Cutting back alpha due to evaluation error
Warning: Cutting back alpha due to evaluation error
Warning: Cutting back alpha due to evaluation error
Warning: Cutting back alpha due to evaluation error
Warning: Cutting back alpha due to evaluation error
Warning: Cutting back alpha due to evaluation error
Warning: Cutting back alpha due to evaluation error
Warning: Cutting back alpha due to evaluation error
Warning: Cutting back alpha due to evaluation error
Warning: Cutting back alpha due to evaluation error
Warning: Cutting back alpha due to evaluation error
Warning: Cutting back alpha due to evaluation error
Warning: Cutting back alpha due to evaluation error
Warning: Cutting back alpha due to evaluation error
Warning: Cutting back alpha due to evaluation error
Warning: Cutting back alpha due to evaluation error
Warning: Cutting back alpha due to evaluation error
Warning: Cutting back alpha due to evaluation error
Warning: Cutting back alpha due to evaluation error
Warning: Cutting back alpha due to evaluation error
Warning: Cutting back alpha due to evaluation error
Warning: Cutting back alpha due to evaluation error
Warning: Cutting back alpha due to evaluation error
Warning: Cutting back alpha due to evaluation error
Warning: Cutting back alpha due to evaluation error
Warning: Cutting back alpha due to evaluation error
Warning: Cutting back alpha due to evaluation error
Warning: Cutting back alpha due to evaluation error
Warning: Cutting back alpha due to evaluation error
  81r-1.9045329e+03 2.31e-08 4.17e+02  -5.7 3.26e-02    -  1.00e+00 1.82e-12h 40
Warning: Cutting back alpha due to evaluation error
Warning: Cutting back alpha due to evaluation error
Warning: Cutting back alpha due to evaluation error
Warning: Cutting back alpha due to evaluation error
Warning: Cutting back alpha due to evaluation error
Warning: Cutting back alpha due to evaluation error
Warning: Cutting back alpha due to evaluation error
Warning: Cutting back alpha due to evaluation error
Warning: Cutting back alpha due to evaluation error
Warning: Cutting back alpha due to evaluation error
Warning: Cutting back alpha due to evaluation error
Warning: Cutting back alpha due to evaluation error
Warning: Cutting back alpha due to evaluation error
Warning: Cutting back alpha due to evaluation error
Warning: Cutting back alpha due to evaluation error
Warning: Cutting back alpha due to evaluation error
Warning: Cutting back alpha due to evaluation error
Warning: Cutting back alpha due to evaluation error
Warning: Cutting back alpha due to evaluation error
Warning: Cutting back alpha due to evaluation error
Warning: Cutting back alpha due to evaluation error
Warning: Cutting back alpha due to evaluation error
Warning: Cutting back alpha due to evaluation error
Warning: Cutting back alpha due to evaluation error
Warning: Cutting back alpha due to evaluation error
Warning: Cutting back alpha due to evaluation error
Warning: Cutting back alpha due to evaluation error
Warning: Cutting back alpha due to evaluation error
Warning: Cutting back alpha due to evaluation error
Warning: Cutting back alpha due to evaluation error
Warning: Cutting back alpha due to evaluation error
Warning: Cutting back alpha due to evaluation error
  82r-1.9045329e+03 2.31e-08 4.22e+02  -5.7 3.26e-02    -  1.00e+00 7.11e-15h 48
Warning: Cutting back alpha due to evaluation error
Warning: Cutting back alpha due to evaluation error
Warning: Cutting back alpha due to evaluation error
Warning: Cutting back alpha due to evaluation error
Warning: Cutting back alpha due to evaluation error
Warning: Cutting back alpha due to evaluation error
Warning: Cutting back alpha due to evaluation error
Warning: Cutting back alpha due to evaluation error
Warning: Cutting back alpha due to evaluation error
Warning: Cutting back alpha due to evaluation error
Warning: Cutting back alpha due to evaluation error
Warning: Cutting back alpha due to evaluation error
Warning: Cutting back alpha due to evaluation error
Warning: Cutting back alpha due to evaluation error
Warning: Cutting back alpha due to evaluation error
Warning: Cutting back alpha due to evaluation error
Warning: Cutting back alpha due to evaluation error
Warning: Cutting back alpha due to evaluation error
Warning: Cutting back alpha due to evaluation error
Warning: Cutting back alpha due to evaluation error
Warning: Cutting back alpha due to evaluation error
Warning: Cutting back alpha due to evaluation error
Warning: Cutting back alpha due to evaluation error
Warning: Cutting back alpha due to evaluation error
Warning: Cutting back alpha due to evaluation error
Warning: Cutting back alpha due to evaluation error
Warning: Cutting back alpha due to evaluation error
Warning: Cutting back alpha due to evaluation error
Warning: Cutting back alpha due to evaluation error
Warning: Cutting back alpha due to evaluation error
Warning: Cutting back alpha due to evaluation error
Warning: Cutting back alpha due to evaluation error
Warning: Evaluation error during soft restoration phase step.
Warning: Evaluation error during soft restoration phase step.
Warning: Evaluation error during soft restoration phase step.
Restoration phase is called at point that is almost feasible,
  with constraint violation 2.362419e-15. Abort.
Restoration phase in the restoration phase failed.

Number of Iterations....: 82

                                   (scaled)                 (unscaled)
Objective...............:  -1.9045329166107729e+03   -1.9045329166107729e+03
Dual infeasibility......:   4.0614700383637893e+02    4.0614700383637893e+02
Constraint violation....:   2.3119743040258628e-08    2.3119743040258628e-08
Complementarity.........:   3.5289338032908145e-06    3.5289338032908145e-06
Overall NLP error.......:   4.0614700383637893e+02    4.0614700383637893e+02


Number of objective function evaluations             = 517
Number of objective gradient evaluations             = 51
Number of equality constraint evaluations            = 508
Number of inequality constraint evaluations          = 0
Number of equality constraint Jacobian evaluations   = 83
Number of inequality constraint Jacobian evaluations = 0
Number of Lagrangian Hessian evaluations             = 83
Total CPU secs in IPOPT (w/o function evaluations)   =      0.254
Total CPU secs in NLP function evaluations           =      0.116

EXIT: Restoration Failed!

************************ CUTEst statistics ************************


 Package used            :  IPOPT
 Problem                 :  HIMMELBJ  
 # variables             =              45
 # constraints           =              14
 # objective functions   =        0.5690000E+03
 # objective gradients   =        0.5200000E+02
 # objective Hessians    =        0.8200000E+02
 # Hessian-vector prdct  =        0.0000000E+00
 # constraints functions =        0.5930000E+03
 # constraints gradients =        0.8500000E+02
 # constraints Hessians  =        0.8200000E+02
 Exit code               =              -2
 Final f                 =       -1.9045329166107729D+03
 Bounds feasibility      =        9.9999803586639771D-13
 Set up time             =            0.03 seconds
 Solve time              =            0.71 seconds


******************************************************************

